\ENCODING=ISO-8859-1
\Problem name: 

Maximize
 obj1: 0.65 x_0_2 + 0.3 x_0_3 + 0.4 x_0_4 + 0.95 x_0_5 + 0.99 x_0_6
       + 0.36 x_0_7 + x_0_8 + 0.15 x_0_9 + 0.8 x_0_10 + 0.06 x_0_11
       + 0.39 x_0_12 + 0.73 x_0_13 + 0.5 x_0_14 + 0.9 x_0_15 + 0.5 x_0_16
       + 0.62 x_0_17 + 0.37 x_0_18 + 0.13 x_0_19 + 0.77 x_0_20 + 0.65 x_1_2
       + 0.3 x_1_3 + 0.4 x_1_4 + 0.95 x_1_5 + 0.99 x_1_6 + 0.36 x_1_7 + x_1_8
       + 0.15 x_1_9 + 0.8 x_1_10 + 0.06 x_1_11 + 0.39 x_1_12 + 0.73 x_1_13
       + 0.5 x_1_14 + 0.9 x_1_15 + 0.5 x_1_16 + 0.62 x_1_17 + 0.37 x_1_18
       + 0.13 x_1_19 + 0.77 x_1_20 + 0.3 x_2_3 + 0.4 x_2_4 + 0.95 x_2_5
       + 0.99 x_2_6 + 0.36 x_2_7 + x_2_8 + 0.15 x_2_9 + 0.8 x_2_10
       + 0.06 x_2_11 + 0.39 x_2_12 + 0.73 x_2_13 + 0.5 x_2_14 + 0.9 x_2_15
       + 0.5 x_2_16 + 0.62 x_2_17 + 0.37 x_2_18 + 0.13 x_2_19 + 0.77 x_2_20
       + 0.65 x_3_2 + 0.4 x_3_4 + 0.95 x_3_5 + 0.99 x_3_6 + 0.36 x_3_7 + x_3_8
       + 0.15 x_3_9 + 0.8 x_3_10 + 0.06 x_3_11 + 0.39 x_3_12 + 0.73 x_3_13
       + 0.5 x_3_14 + 0.9 x_3_15 + 0.5 x_3_16 + 0.62 x_3_17 + 0.37 x_3_18
       + 0.13 x_3_19 + 0.77 x_3_20 + 0.65 x_4_2 + 0.3 x_4_3 + 0.95 x_4_5
       + 0.99 x_4_6 + 0.36 x_4_7 + x_4_8 + 0.15 x_4_9 + 0.8 x_4_10
       + 0.06 x_4_11 + 0.39 x_4_12 + 0.73 x_4_13 + 0.5 x_4_14 + 0.9 x_4_15
       + 0.5 x_4_16 + 0.62 x_4_17 + 0.37 x_4_18 + 0.13 x_4_19 + 0.77 x_4_20
       + 0.65 x_5_2 + 0.3 x_5_3 + 0.4 x_5_4 + 0.99 x_5_6 + 0.36 x_5_7 + x_5_8
       + 0.15 x_5_9 + 0.8 x_5_10 + 0.06 x_5_11 + 0.39 x_5_12 + 0.73 x_5_13
       + 0.5 x_5_14 + 0.9 x_5_15 + 0.5 x_5_16 + 0.62 x_5_17 + 0.37 x_5_18
       + 0.13 x_5_19 + 0.77 x_5_20 + 0.65 x_6_2 + 0.3 x_6_3 + 0.4 x_6_4
       + 0.95 x_6_5 + 0.36 x_6_7 + x_6_8 + 0.15 x_6_9 + 0.8 x_6_10
       + 0.06 x_6_11 + 0.39 x_6_12 + 0.73 x_6_13 + 0.5 x_6_14 + 0.9 x_6_15
       + 0.5 x_6_16 + 0.62 x_6_17 + 0.37 x_6_18 + 0.13 x_6_19 + 0.77 x_6_20
       + 0.65 x_7_2 + 0.3 x_7_3 + 0.4 x_7_4 + 0.95 x_7_5 + 0.99 x_7_6 + x_7_8
       + 0.15 x_7_9 + 0.8 x_7_10 + 0.06 x_7_11 + 0.39 x_7_12 + 0.73 x_7_13
       + 0.5 x_7_14 + 0.9 x_7_15 + 0.5 x_7_16 + 0.62 x_7_17 + 0.37 x_7_18
       + 0.13 x_7_19 + 0.77 x_7_20 + 0.65 x_8_2 + 0.3 x_8_3 + 0.4 x_8_4
       + 0.95 x_8_5 + 0.99 x_8_6 + 0.36 x_8_7 + 0.15 x_8_9 + 0.8 x_8_10
       + 0.06 x_8_11 + 0.39 x_8_12 + 0.73 x_8_13 + 0.5 x_8_14 + 0.9 x_8_15
       + 0.5 x_8_16 + 0.62 x_8_17 + 0.37 x_8_18 + 0.13 x_8_19 + 0.77 x_8_20
       + 0.65 x_9_2 + 0.3 x_9_3 + 0.4 x_9_4 + 0.95 x_9_5 + 0.99 x_9_6
       + 0.36 x_9_7 + x_9_8 + 0.8 x_9_10 + 0.06 x_9_11 + 0.39 x_9_12
       + 0.73 x_9_13 + 0.5 x_9_14 + 0.9 x_9_15 + 0.5 x_9_16 + 0.62 x_9_17
       + 0.37 x_9_18 + 0.13 x_9_19 + 0.77 x_9_20 + 0.65 x_10_2 + 0.3 x_10_3
       + 0.4 x_10_4 + 0.95 x_10_5 + 0.99 x_10_6 + 0.36 x_10_7 + x_10_8
       + 0.15 x_10_9 + 0.06 x_10_11 + 0.39 x_10_12 + 0.73 x_10_13 + 0.5 x_10_14
       + 0.9 x_10_15 + 0.5 x_10_16 + 0.62 x_10_17 + 0.37 x_10_18 + 0.13 x_10_19
       + 0.77 x_10_20 + 0.65 x_11_2 + 0.3 x_11_3 + 0.4 x_11_4 + 0.95 x_11_5
       + 0.99 x_11_6 + 0.36 x_11_7 + x_11_8 + 0.15 x_11_9 + 0.8 x_11_10
       + 0.39 x_11_12 + 0.73 x_11_13 + 0.5 x_11_14 + 0.9 x_11_15 + 0.5 x_11_16
       + 0.62 x_11_17 + 0.37 x_11_18 + 0.13 x_11_19 + 0.77 x_11_20
       + 0.65 x_12_2 + 0.3 x_12_3 + 0.4 x_12_4 + 0.95 x_12_5 + 0.99 x_12_6
       + 0.36 x_12_7 + x_12_8 + 0.15 x_12_9 + 0.8 x_12_10 + 0.06 x_12_11
       + 0.73 x_12_13 + 0.5 x_12_14 + 0.9 x_12_15 + 0.5 x_12_16 + 0.62 x_12_17
       + 0.37 x_12_18 + 0.13 x_12_19 + 0.77 x_12_20 + 0.65 x_13_2 + 0.3 x_13_3
       + 0.4 x_13_4 + 0.95 x_13_5 + 0.99 x_13_6 + 0.36 x_13_7 + x_13_8
       + 0.15 x_13_9 + 0.8 x_13_10 + 0.06 x_13_11 + 0.39 x_13_12 + 0.5 x_13_14
       + 0.9 x_13_15 + 0.5 x_13_16 + 0.62 x_13_17 + 0.37 x_13_18 + 0.13 x_13_19
       + 0.77 x_13_20 + 0.65 x_14_2 + 0.3 x_14_3 + 0.4 x_14_4 + 0.95 x_14_5
       + 0.99 x_14_6 + 0.36 x_14_7 + x_14_8 + 0.15 x_14_9 + 0.8 x_14_10
       + 0.06 x_14_11 + 0.39 x_14_12 + 0.73 x_14_13 + 0.9 x_14_15 + 0.5 x_14_16
       + 0.62 x_14_17 + 0.37 x_14_18 + 0.13 x_14_19 + 0.77 x_14_20
       + 0.65 x_15_2 + 0.3 x_15_3 + 0.4 x_15_4 + 0.95 x_15_5 + 0.99 x_15_6
       + 0.36 x_15_7 + x_15_8 + 0.15 x_15_9 + 0.8 x_15_10 + 0.06 x_15_11
       + 0.39 x_15_12 + 0.73 x_15_13 + 0.5 x_15_14 + 0.5 x_15_16 + 0.62 x_15_17
       + 0.37 x_15_18 + 0.13 x_15_19 + 0.77 x_15_20 + 0.65 x_16_2 + 0.3 x_16_3
       + 0.4 x_16_4 + 0.95 x_16_5 + 0.99 x_16_6 + 0.36 x_16_7 + x_16_8
       + 0.15 x_16_9 + 0.8 x_16_10 + 0.06 x_16_11 + 0.39 x_16_12 + 0.73 x_16_13
       + 0.5 x_16_14 + 0.9 x_16_15 + 0.62 x_16_17 + 0.37 x_16_18 + 0.13 x_16_19
       + 0.77 x_16_20 + 0.65 x_17_2 + 0.3 x_17_3 + 0.4 x_17_4 + 0.95 x_17_5
       + 0.99 x_17_6 + 0.36 x_17_7 + x_17_8 + 0.15 x_17_9 + 0.8 x_17_10
       + 0.06 x_17_11 + 0.39 x_17_12 + 0.73 x_17_13 + 0.5 x_17_14 + 0.9 x_17_15
       + 0.5 x_17_16 + 0.37 x_17_18 + 0.13 x_17_19 + 0.77 x_17_20 + 0.65 x_18_2
       + 0.3 x_18_3 + 0.4 x_18_4 + 0.95 x_18_5 + 0.99 x_18_6 + 0.36 x_18_7
       + x_18_8 + 0.15 x_18_9 + 0.8 x_18_10 + 0.06 x_18_11 + 0.39 x_18_12
       + 0.73 x_18_13 + 0.5 x_18_14 + 0.9 x_18_15 + 0.5 x_18_16 + 0.62 x_18_17
       + 0.13 x_18_19 + 0.77 x_18_20 + 0.65 x_19_2 + 0.3 x_19_3 + 0.4 x_19_4
       + 0.95 x_19_5 + 0.99 x_19_6 + 0.36 x_19_7 + x_19_8 + 0.15 x_19_9
       + 0.8 x_19_10 + 0.06 x_19_11 + 0.39 x_19_12 + 0.73 x_19_13 + 0.5 x_19_14
       + 0.9 x_19_15 + 0.5 x_19_16 + 0.62 x_19_17 + 0.37 x_19_18 + 0.77 x_19_20
       + 0.65 x_20_2 + 0.3 x_20_3 + 0.4 x_20_4 + 0.95 x_20_5 + 0.99 x_20_6
       + 0.36 x_20_7 + x_20_8 + 0.15 x_20_9 + 0.8 x_20_10 + 0.06 x_20_11
       + 0.39 x_20_12 + 0.73 x_20_13 + 0.5 x_20_14 + 0.9 x_20_15 + 0.5 x_20_16
       + 0.62 x_20_17 + 0.37 x_20_18 + 0.13 x_20_19 + 0 t_0 + 0 t_1 + 0 t_2
       + 0 t_3 + 0 t_4 + 0 t_5 + 0 t_6 + 0 t_7 + 0 t_8 + 0 t_9 + 0 t_10
       + 0 t_11 + 0 t_12 + 0 t_13 + 0 t_14 + 0 t_15 + 0 t_16 + 0 t_17 + 0 t_18
       + 0 t_19 + 0 t_20
Subject To
 flow_0:    x_0_2 + x_0_3 + x_0_4 + x_0_5 + x_0_6 + x_0_7 + x_0_8 + x_0_9
            + x_0_10 + x_0_11 + x_0_12 + x_0_13 + x_0_14 + x_0_15 + x_0_16
            + x_0_17 + x_0_18 + x_0_19 + x_0_20 - x_2_0 - x_3_0 - x_4_0 - x_5_0
            - x_6_0 - x_7_0 - x_8_0 - x_9_0 - x_10_0 - x_11_0 - x_12_0 - x_13_0
            - x_14_0 - x_15_0 - x_16_0 - x_17_0 - x_18_0 - x_19_0 - x_20_0
             = -1
 flow_1:    x_1_2 + x_1_3 + x_1_4 + x_1_5 + x_1_6 + x_1_7 + x_1_8 + x_1_9
            + x_1_10 + x_1_11 + x_1_12 + x_1_13 + x_1_14 + x_1_15 + x_1_16
            + x_1_17 + x_1_18 + x_1_19 + x_1_20 - x_2_1 - x_3_1 - x_4_1 - x_5_1
            - x_6_1 - x_7_1 - x_8_1 - x_9_1 - x_10_1 - x_11_1 - x_12_1 - x_13_1
            - x_14_1 - x_15_1 - x_16_1 - x_17_1 - x_18_1 - x_19_1 - x_20_1  = 1
 flow_2:    - x_0_2 - x_1_2 + x_2_0 + x_2_1 + x_2_3 + x_2_4 + x_2_5 + x_2_6
            + x_2_7 + x_2_8 + x_2_9 + x_2_10 + x_2_11 + x_2_12 + x_2_13
            + x_2_14 + x_2_15 + x_2_16 + x_2_17 + x_2_18 + x_2_19 + x_2_20
            - x_3_2 - x_4_2 - x_5_2 - x_6_2 - x_7_2 - x_8_2 - x_9_2 - x_10_2
            - x_11_2 - x_12_2 - x_13_2 - x_14_2 - x_15_2 - x_16_2 - x_17_2
            - x_18_2 - x_19_2 - x_20_2  = 0
 flow_3:    - x_0_3 - x_1_3 - x_2_3 + x_3_0 + x_3_1 + x_3_2 + x_3_4 + x_3_5
            + x_3_6 + x_3_7 + x_3_8 + x_3_9 + x_3_10 + x_3_11 + x_3_12 + x_3_13
            + x_3_14 + x_3_15 + x_3_16 + x_3_17 + x_3_18 + x_3_19 + x_3_20
            - x_4_3 - x_5_3 - x_6_3 - x_7_3 - x_8_3 - x_9_3 - x_10_3 - x_11_3
            - x_12_3 - x_13_3 - x_14_3 - x_15_3 - x_16_3 - x_17_3 - x_18_3
            - x_19_3 - x_20_3  = 0
 flow_4:    - x_0_4 - x_1_4 - x_2_4 - x_3_4 + x_4_0 + x_4_1 + x_4_2 + x_4_3
            + x_4_5 + x_4_6 + x_4_7 + x_4_8 + x_4_9 + x_4_10 + x_4_11 + x_4_12
            + x_4_13 + x_4_14 + x_4_15 + x_4_16 + x_4_17 + x_4_18 + x_4_19
            + x_4_20 - x_5_4 - x_6_4 - x_7_4 - x_8_4 - x_9_4 - x_10_4 - x_11_4
            - x_12_4 - x_13_4 - x_14_4 - x_15_4 - x_16_4 - x_17_4 - x_18_4
            - x_19_4 - x_20_4  = 0
 flow_5:    - x_0_5 - x_1_5 - x_2_5 - x_3_5 - x_4_5 + x_5_0 + x_5_1 + x_5_2
            + x_5_3 + x_5_4 + x_5_6 + x_5_7 + x_5_8 + x_5_9 + x_5_10 + x_5_11
            + x_5_12 + x_5_13 + x_5_14 + x_5_15 + x_5_16 + x_5_17 + x_5_18
            + x_5_19 + x_5_20 - x_6_5 - x_7_5 - x_8_5 - x_9_5 - x_10_5 - x_11_5
            - x_12_5 - x_13_5 - x_14_5 - x_15_5 - x_16_5 - x_17_5 - x_18_5
            - x_19_5 - x_20_5  = 0
 flow_6:    - x_0_6 - x_1_6 - x_2_6 - x_3_6 - x_4_6 - x_5_6 + x_6_0 + x_6_1
            + x_6_2 + x_6_3 + x_6_4 + x_6_5 + x_6_7 + x_6_8 + x_6_9 + x_6_10
            + x_6_11 + x_6_12 + x_6_13 + x_6_14 + x_6_15 + x_6_16 + x_6_17
            + x_6_18 + x_6_19 + x_6_20 - x_7_6 - x_8_6 - x_9_6 - x_10_6
            - x_11_6 - x_12_6 - x_13_6 - x_14_6 - x_15_6 - x_16_6 - x_17_6
            - x_18_6 - x_19_6 - x_20_6  = 0
 flow_7:    - x_0_7 - x_1_7 - x_2_7 - x_3_7 - x_4_7 - x_5_7 - x_6_7 + x_7_0
            + x_7_1 + x_7_2 + x_7_3 + x_7_4 + x_7_5 + x_7_6 + x_7_8 + x_7_9
            + x_7_10 + x_7_11 + x_7_12 + x_7_13 + x_7_14 + x_7_15 + x_7_16
            + x_7_17 + x_7_18 + x_7_19 + x_7_20 - x_8_7 - x_9_7 - x_10_7
            - x_11_7 - x_12_7 - x_13_7 - x_14_7 - x_15_7 - x_16_7 - x_17_7
            - x_18_7 - x_19_7 - x_20_7  = 0
 flow_8:    - x_0_8 - x_1_8 - x_2_8 - x_3_8 - x_4_8 - x_5_8 - x_6_8 - x_7_8
            + x_8_0 + x_8_1 + x_8_2 + x_8_3 + x_8_4 + x_8_5 + x_8_6 + x_8_7
            + x_8_9 + x_8_10 + x_8_11 + x_8_12 + x_8_13 + x_8_14 + x_8_15
            + x_8_16 + x_8_17 + x_8_18 + x_8_19 + x_8_20 - x_9_8 - x_10_8
            - x_11_8 - x_12_8 - x_13_8 - x_14_8 - x_15_8 - x_16_8 - x_17_8
            - x_18_8 - x_19_8 - x_20_8  = 0
 flow_9:    - x_0_9 - x_1_9 - x_2_9 - x_3_9 - x_4_9 - x_5_9 - x_6_9 - x_7_9
            - x_8_9 + x_9_0 + x_9_1 + x_9_2 + x_9_3 + x_9_4 + x_9_5 + x_9_6
            + x_9_7 + x_9_8 + x_9_10 + x_9_11 + x_9_12 + x_9_13 + x_9_14
            + x_9_15 + x_9_16 + x_9_17 + x_9_18 + x_9_19 + x_9_20 - x_10_9
            - x_11_9 - x_12_9 - x_13_9 - x_14_9 - x_15_9 - x_16_9 - x_17_9
            - x_18_9 - x_19_9 - x_20_9  = 0
 flow_10:   - x_0_10 - x_1_10 - x_2_10 - x_3_10 - x_4_10 - x_5_10 - x_6_10
            - x_7_10 - x_8_10 - x_9_10 + x_10_0 + x_10_1 + x_10_2 + x_10_3
            + x_10_4 + x_10_5 + x_10_6 + x_10_7 + x_10_8 + x_10_9 + x_10_11
            + x_10_12 + x_10_13 + x_10_14 + x_10_15 + x_10_16 + x_10_17
            + x_10_18 + x_10_19 + x_10_20 - x_11_10 - x_12_10 - x_13_10
            - x_14_10 - x_15_10 - x_16_10 - x_17_10 - x_18_10 - x_19_10
            - x_20_10  = 0
 flow_11:   - x_0_11 - x_1_11 - x_2_11 - x_3_11 - x_4_11 - x_5_11 - x_6_11
            - x_7_11 - x_8_11 - x_9_11 - x_10_11 + x_11_0 + x_11_1 + x_11_2
            + x_11_3 + x_11_4 + x_11_5 + x_11_6 + x_11_7 + x_11_8 + x_11_9
            + x_11_10 + x_11_12 + x_11_13 + x_11_14 + x_11_15 + x_11_16
            + x_11_17 + x_11_18 + x_11_19 + x_11_20 - x_12_11 - x_13_11
            - x_14_11 - x_15_11 - x_16_11 - x_17_11 - x_18_11 - x_19_11
            - x_20_11  = 0
 flow_12:   - x_0_12 - x_1_12 - x_2_12 - x_3_12 - x_4_12 - x_5_12 - x_6_12
            - x_7_12 - x_8_12 - x_9_12 - x_10_12 - x_11_12 + x_12_0 + x_12_1
            + x_12_2 + x_12_3 + x_12_4 + x_12_5 + x_12_6 + x_12_7 + x_12_8
            + x_12_9 + x_12_10 + x_12_11 + x_12_13 + x_12_14 + x_12_15
            + x_12_16 + x_12_17 + x_12_18 + x_12_19 + x_12_20 - x_13_12
            - x_14_12 - x_15_12 - x_16_12 - x_17_12 - x_18_12 - x_19_12
            - x_20_12  = 0
 flow_13:   - x_0_13 - x_1_13 - x_2_13 - x_3_13 - x_4_13 - x_5_13 - x_6_13
            - x_7_13 - x_8_13 - x_9_13 - x_10_13 - x_11_13 - x_12_13 + x_13_0
            + x_13_1 + x_13_2 + x_13_3 + x_13_4 + x_13_5 + x_13_6 + x_13_7
            + x_13_8 + x_13_9 + x_13_10 + x_13_11 + x_13_12 + x_13_14 + x_13_15
            + x_13_16 + x_13_17 + x_13_18 + x_13_19 + x_13_20 - x_14_13
            - x_15_13 - x_16_13 - x_17_13 - x_18_13 - x_19_13 - x_20_13  = 0
 flow_14:   - x_0_14 - x_1_14 - x_2_14 - x_3_14 - x_4_14 - x_5_14 - x_6_14
            - x_7_14 - x_8_14 - x_9_14 - x_10_14 - x_11_14 - x_12_14 - x_13_14
            + x_14_0 + x_14_1 + x_14_2 + x_14_3 + x_14_4 + x_14_5 + x_14_6
            + x_14_7 + x_14_8 + x_14_9 + x_14_10 + x_14_11 + x_14_12 + x_14_13
            + x_14_15 + x_14_16 + x_14_17 + x_14_18 + x_14_19 + x_14_20
            - x_15_14 - x_16_14 - x_17_14 - x_18_14 - x_19_14 - x_20_14  = 0
 flow_15:   - x_0_15 - x_1_15 - x_2_15 - x_3_15 - x_4_15 - x_5_15 - x_6_15
            - x_7_15 - x_8_15 - x_9_15 - x_10_15 - x_11_15 - x_12_15 - x_13_15
            - x_14_15 + x_15_0 + x_15_1 + x_15_2 + x_15_3 + x_15_4 + x_15_5
            + x_15_6 + x_15_7 + x_15_8 + x_15_9 + x_15_10 + x_15_11 + x_15_12
            + x_15_13 + x_15_14 + x_15_16 + x_15_17 + x_15_18 + x_15_19
            + x_15_20 - x_16_15 - x_17_15 - x_18_15 - x_19_15 - x_20_15  = 0
 flow_16:   - x_0_16 - x_1_16 - x_2_16 - x_3_16 - x_4_16 - x_5_16 - x_6_16
            - x_7_16 - x_8_16 - x_9_16 - x_10_16 - x_11_16 - x_12_16 - x_13_16
            - x_14_16 - x_15_16 + x_16_0 + x_16_1 + x_16_2 + x_16_3 + x_16_4
            + x_16_5 + x_16_6 + x_16_7 + x_16_8 + x_16_9 + x_16_10 + x_16_11
            + x_16_12 + x_16_13 + x_16_14 + x_16_15 + x_16_17 + x_16_18
            + x_16_19 + x_16_20 - x_17_16 - x_18_16 - x_19_16 - x_20_16  = 0
 flow_17:   - x_0_17 - x_1_17 - x_2_17 - x_3_17 - x_4_17 - x_5_17 - x_6_17
            - x_7_17 - x_8_17 - x_9_17 - x_10_17 - x_11_17 - x_12_17 - x_13_17
            - x_14_17 - x_15_17 - x_16_17 + x_17_0 + x_17_1 + x_17_2 + x_17_3
            + x_17_4 + x_17_5 + x_17_6 + x_17_7 + x_17_8 + x_17_9 + x_17_10
            + x_17_11 + x_17_12 + x_17_13 + x_17_14 + x_17_15 + x_17_16
            + x_17_18 + x_17_19 + x_17_20 - x_18_17 - x_19_17 - x_20_17  = 0
 flow_18:   - x_0_18 - x_1_18 - x_2_18 - x_3_18 - x_4_18 - x_5_18 - x_6_18
            - x_7_18 - x_8_18 - x_9_18 - x_10_18 - x_11_18 - x_12_18 - x_13_18
            - x_14_18 - x_15_18 - x_16_18 - x_17_18 + x_18_0 + x_18_1 + x_18_2
            + x_18_3 + x_18_4 + x_18_5 + x_18_6 + x_18_7 + x_18_8 + x_18_9
            + x_18_10 + x_18_11 + x_18_12 + x_18_13 + x_18_14 + x_18_15
            + x_18_16 + x_18_17 + x_18_19 + x_18_20 - x_19_18 - x_20_18  = 0
 flow_19:   - x_0_19 - x_1_19 - x_2_19 - x_3_19 - x_4_19 - x_5_19 - x_6_19
            - x_7_19 - x_8_19 - x_9_19 - x_10_19 - x_11_19 - x_12_19 - x_13_19
            - x_14_19 - x_15_19 - x_16_19 - x_17_19 - x_18_19 + x_19_0 + x_19_1
            + x_19_2 + x_19_3 + x_19_4 + x_19_5 + x_19_6 + x_19_7 + x_19_8
            + x_19_9 + x_19_10 + x_19_11 + x_19_12 + x_19_13 + x_19_14
            + x_19_15 + x_19_16 + x_19_17 + x_19_18 + x_19_20 - x_20_19  = 0
 flow_20:   - x_0_20 - x_1_20 - x_2_20 - x_3_20 - x_4_20 - x_5_20 - x_6_20
            - x_7_20 - x_8_20 - x_9_20 - x_10_20 - x_11_20 - x_12_20 - x_13_20
            - x_14_20 - x_15_20 - x_16_20 - x_17_20 - x_18_20 - x_19_20
            + x_20_0 + x_20_1 + x_20_2 + x_20_3 + x_20_4 + x_20_5 + x_20_6
            + x_20_7 + x_20_8 + x_20_9 + x_20_10 + x_20_11 + x_20_12 + x_20_13
            + x_20_14 + x_20_15 + x_20_16 + x_20_17 + x_20_18 + x_20_19  = 0
 dpt_0:     x_0_0 + x_0_1 + x_0_2 + x_0_3 + x_0_4 + x_0_5 + x_0_6 + x_0_7
            + x_0_8 + x_0_9 + x_0_10 + x_0_11 + x_0_12 + x_0_13 + x_0_14
            + x_0_15 + x_0_16 + x_0_17 + x_0_18 + x_0_19 + x_0_20 <= 1
 dpt_1:     x_1_0 + x_1_1 + x_1_2 + x_1_3 + x_1_4 + x_1_5 + x_1_6 + x_1_7
            + x_1_8 + x_1_9 + x_1_10 + x_1_11 + x_1_12 + x_1_13 + x_1_14
            + x_1_15 + x_1_16 + x_1_17 + x_1_18 + x_1_19 + x_1_20 <= 1
 dpt_2:     x_2_0 + x_2_1 + x_2_2 + x_2_3 + x_2_4 + x_2_5 + x_2_6 + x_2_7
            + x_2_8 + x_2_9 + x_2_10 + x_2_11 + x_2_12 + x_2_13 + x_2_14
            + x_2_15 + x_2_16 + x_2_17 + x_2_18 + x_2_19 + x_2_20 <= 1
 dpt_3:     x_3_0 + x_3_1 + x_3_2 + x_3_3 + x_3_4 + x_3_5 + x_3_6 + x_3_7
            + x_3_8 + x_3_9 + x_3_10 + x_3_11 + x_3_12 + x_3_13 + x_3_14
            + x_3_15 + x_3_16 + x_3_17 + x_3_18 + x_3_19 + x_3_20 <= 1
 dpt_4:     x_4_0 + x_4_1 + x_4_2 + x_4_3 + x_4_4 + x_4_5 + x_4_6 + x_4_7
            + x_4_8 + x_4_9 + x_4_10 + x_4_11 + x_4_12 + x_4_13 + x_4_14
            + x_4_15 + x_4_16 + x_4_17 + x_4_18 + x_4_19 + x_4_20 <= 1
 dpt_5:     x_5_0 + x_5_1 + x_5_2 + x_5_3 + x_5_4 + x_5_5 + x_5_6 + x_5_7
            + x_5_8 + x_5_9 + x_5_10 + x_5_11 + x_5_12 + x_5_13 + x_5_14
            + x_5_15 + x_5_16 + x_5_17 + x_5_18 + x_5_19 + x_5_20 <= 1
 dpt_6:     x_6_0 + x_6_1 + x_6_2 + x_6_3 + x_6_4 + x_6_5 + x_6_6 + x_6_7
            + x_6_8 + x_6_9 + x_6_10 + x_6_11 + x_6_12 + x_6_13 + x_6_14
            + x_6_15 + x_6_16 + x_6_17 + x_6_18 + x_6_19 + x_6_20 <= 1
 dpt_7:     x_7_0 + x_7_1 + x_7_2 + x_7_3 + x_7_4 + x_7_5 + x_7_6 + x_7_7
            + x_7_8 + x_7_9 + x_7_10 + x_7_11 + x_7_12 + x_7_13 + x_7_14
            + x_7_15 + x_7_16 + x_7_17 + x_7_18 + x_7_19 + x_7_20 <= 1
 dpt_8:     x_8_0 + x_8_1 + x_8_2 + x_8_3 + x_8_4 + x_8_5 + x_8_6 + x_8_7
            + x_8_8 + x_8_9 + x_8_10 + x_8_11 + x_8_12 + x_8_13 + x_8_14
            + x_8_15 + x_8_16 + x_8_17 + x_8_18 + x_8_19 + x_8_20 <= 1
 dpt_9:     x_9_0 + x_9_1 + x_9_2 + x_9_3 + x_9_4 + x_9_5 + x_9_6 + x_9_7
            + x_9_8 + x_9_9 + x_9_10 + x_9_11 + x_9_12 + x_9_13 + x_9_14
            + x_9_15 + x_9_16 + x_9_17 + x_9_18 + x_9_19 + x_9_20 <= 1
 dpt_10:    x_10_0 + x_10_1 + x_10_2 + x_10_3 + x_10_4 + x_10_5 + x_10_6
            + x_10_7 + x_10_8 + x_10_9 + x_10_10 + x_10_11 + x_10_12 + x_10_13
            + x_10_14 + x_10_15 + x_10_16 + x_10_17 + x_10_18 + x_10_19
            + x_10_20 <= 1
 dpt_11:    x_11_0 + x_11_1 + x_11_2 + x_11_3 + x_11_4 + x_11_5 + x_11_6
            + x_11_7 + x_11_8 + x_11_9 + x_11_10 + x_11_11 + x_11_12 + x_11_13
            + x_11_14 + x_11_15 + x_11_16 + x_11_17 + x_11_18 + x_11_19
            + x_11_20 <= 1
 dpt_12:    x_12_0 + x_12_1 + x_12_2 + x_12_3 + x_12_4 + x_12_5 + x_12_6
            + x_12_7 + x_12_8 + x_12_9 + x_12_10 + x_12_11 + x_12_12 + x_12_13
            + x_12_14 + x_12_15 + x_12_16 + x_12_17 + x_12_18 + x_12_19
            + x_12_20 <= 1
 dpt_13:    x_13_0 + x_13_1 + x_13_2 + x_13_3 + x_13_4 + x_13_5 + x_13_6
            + x_13_7 + x_13_8 + x_13_9 + x_13_10 + x_13_11 + x_13_12 + x_13_13
            + x_13_14 + x_13_15 + x_13_16 + x_13_17 + x_13_18 + x_13_19
            + x_13_20 <= 1
 dpt_14:    x_14_0 + x_14_1 + x_14_2 + x_14_3 + x_14_4 + x_14_5 + x_14_6
            + x_14_7 + x_14_8 + x_14_9 + x_14_10 + x_14_11 + x_14_12 + x_14_13
            + x_14_14 + x_14_15 + x_14_16 + x_14_17 + x_14_18 + x_14_19
            + x_14_20 <= 1
 dpt_15:    x_15_0 + x_15_1 + x_15_2 + x_15_3 + x_15_4 + x_15_5 + x_15_6
            + x_15_7 + x_15_8 + x_15_9 + x_15_10 + x_15_11 + x_15_12 + x_15_13
            + x_15_14 + x_15_15 + x_15_16 + x_15_17 + x_15_18 + x_15_19
            + x_15_20 <= 1
 dpt_16:    x_16_0 + x_16_1 + x_16_2 + x_16_3 + x_16_4 + x_16_5 + x_16_6
            + x_16_7 + x_16_8 + x_16_9 + x_16_10 + x_16_11 + x_16_12 + x_16_13
            + x_16_14 + x_16_15 + x_16_16 + x_16_17 + x_16_18 + x_16_19
            + x_16_20 <= 1
 dpt_17:    x_17_0 + x_17_1 + x_17_2 + x_17_3 + x_17_4 + x_17_5 + x_17_6
            + x_17_7 + x_17_8 + x_17_9 + x_17_10 + x_17_11 + x_17_12 + x_17_13
            + x_17_14 + x_17_15 + x_17_16 + x_17_17 + x_17_18 + x_17_19
            + x_17_20 <= 1
 dpt_18:    x_18_0 + x_18_1 + x_18_2 + x_18_3 + x_18_4 + x_18_5 + x_18_6
            + x_18_7 + x_18_8 + x_18_9 + x_18_10 + x_18_11 + x_18_12 + x_18_13
            + x_18_14 + x_18_15 + x_18_16 + x_18_17 + x_18_18 + x_18_19
            + x_18_20 <= 1
 dpt_19:    x_19_0 + x_19_1 + x_19_2 + x_19_3 + x_19_4 + x_19_5 + x_19_6
            + x_19_7 + x_19_8 + x_19_9 + x_19_10 + x_19_11 + x_19_12 + x_19_13
            + x_19_14 + x_19_15 + x_19_16 + x_19_17 + x_19_18 + x_19_19
            + x_19_20 <= 1
 dpt_20:    x_20_0 + x_20_1 + x_20_2 + x_20_3 + x_20_4 + x_20_5 + x_20_6
            + x_20_7 + x_20_8 + x_20_9 + x_20_10 + x_20_11 + x_20_12 + x_20_13
            + x_20_14 + x_20_15 + x_20_16 + x_20_17 + x_20_18 + x_20_19
            + x_20_20 <= 1
 arr_0:     x_0_0 + x_1_0 + x_2_0 + x_3_0 + x_4_0 + x_5_0 + x_6_0 + x_7_0
            + x_8_0 + x_9_0 + x_10_0 + x_11_0 + x_12_0 + x_13_0 + x_14_0
            + x_15_0 + x_16_0 + x_17_0 + x_18_0 + x_19_0 + x_20_0 <= 1
 arr_1:     x_0_1 + x_1_1 + x_2_1 + x_3_1 + x_4_1 + x_5_1 + x_6_1 + x_7_1
            + x_8_1 + x_9_1 + x_10_1 + x_11_1 + x_12_1 + x_13_1 + x_14_1
            + x_15_1 + x_16_1 + x_17_1 + x_18_1 + x_19_1 + x_20_1 <= 1
 arr_2:     x_0_2 + x_1_2 + x_2_2 + x_3_2 + x_4_2 + x_5_2 + x_6_2 + x_7_2
            + x_8_2 + x_9_2 + x_10_2 + x_11_2 + x_12_2 + x_13_2 + x_14_2
            + x_15_2 + x_16_2 + x_17_2 + x_18_2 + x_19_2 + x_20_2 <= 1
 arr_3:     x_0_3 + x_1_3 + x_2_3 + x_3_3 + x_4_3 + x_5_3 + x_6_3 + x_7_3
            + x_8_3 + x_9_3 + x_10_3 + x_11_3 + x_12_3 + x_13_3 + x_14_3
            + x_15_3 + x_16_3 + x_17_3 + x_18_3 + x_19_3 + x_20_3 <= 1
 arr_4:     x_0_4 + x_1_4 + x_2_4 + x_3_4 + x_4_4 + x_5_4 + x_6_4 + x_7_4
            + x_8_4 + x_9_4 + x_10_4 + x_11_4 + x_12_4 + x_13_4 + x_14_4
            + x_15_4 + x_16_4 + x_17_4 + x_18_4 + x_19_4 + x_20_4 <= 1
 arr_5:     x_0_5 + x_1_5 + x_2_5 + x_3_5 + x_4_5 + x_5_5 + x_6_5 + x_7_5
            + x_8_5 + x_9_5 + x_10_5 + x_11_5 + x_12_5 + x_13_5 + x_14_5
            + x_15_5 + x_16_5 + x_17_5 + x_18_5 + x_19_5 + x_20_5 <= 1
 arr_6:     x_0_6 + x_1_6 + x_2_6 + x_3_6 + x_4_6 + x_5_6 + x_6_6 + x_7_6
            + x_8_6 + x_9_6 + x_10_6 + x_11_6 + x_12_6 + x_13_6 + x_14_6
            + x_15_6 + x_16_6 + x_17_6 + x_18_6 + x_19_6 + x_20_6 <= 1
 arr_7:     x_0_7 + x_1_7 + x_2_7 + x_3_7 + x_4_7 + x_5_7 + x_6_7 + x_7_7
            + x_8_7 + x_9_7 + x_10_7 + x_11_7 + x_12_7 + x_13_7 + x_14_7
            + x_15_7 + x_16_7 + x_17_7 + x_18_7 + x_19_7 + x_20_7 <= 1
 arr_8:     x_0_8 + x_1_8 + x_2_8 + x_3_8 + x_4_8 + x_5_8 + x_6_8 + x_7_8
            + x_8_8 + x_9_8 + x_10_8 + x_11_8 + x_12_8 + x_13_8 + x_14_8
            + x_15_8 + x_16_8 + x_17_8 + x_18_8 + x_19_8 + x_20_8 <= 1
 arr_9:     x_0_9 + x_1_9 + x_2_9 + x_3_9 + x_4_9 + x_5_9 + x_6_9 + x_7_9
            + x_8_9 + x_9_9 + x_10_9 + x_11_9 + x_12_9 + x_13_9 + x_14_9
            + x_15_9 + x_16_9 + x_17_9 + x_18_9 + x_19_9 + x_20_9 <= 1
 arr_10:    x_0_10 + x_1_10 + x_2_10 + x_3_10 + x_4_10 + x_5_10 + x_6_10
            + x_7_10 + x_8_10 + x_9_10 + x_10_10 + x_11_10 + x_12_10 + x_13_10
            + x_14_10 + x_15_10 + x_16_10 + x_17_10 + x_18_10 + x_19_10
            + x_20_10 <= 1
 arr_11:    x_0_11 + x_1_11 + x_2_11 + x_3_11 + x_4_11 + x_5_11 + x_6_11
            + x_7_11 + x_8_11 + x_9_11 + x_10_11 + x_11_11 + x_12_11 + x_13_11
            + x_14_11 + x_15_11 + x_16_11 + x_17_11 + x_18_11 + x_19_11
            + x_20_11 <= 1
 arr_12:    x_0_12 + x_1_12 + x_2_12 + x_3_12 + x_4_12 + x_5_12 + x_6_12
            + x_7_12 + x_8_12 + x_9_12 + x_10_12 + x_11_12 + x_12_12 + x_13_12
            + x_14_12 + x_15_12 + x_16_12 + x_17_12 + x_18_12 + x_19_12
            + x_20_12 <= 1
 arr_13:    x_0_13 + x_1_13 + x_2_13 + x_3_13 + x_4_13 + x_5_13 + x_6_13
            + x_7_13 + x_8_13 + x_9_13 + x_10_13 + x_11_13 + x_12_13 + x_13_13
            + x_14_13 + x_15_13 + x_16_13 + x_17_13 + x_18_13 + x_19_13
            + x_20_13 <= 1
 arr_14:    x_0_14 + x_1_14 + x_2_14 + x_3_14 + x_4_14 + x_5_14 + x_6_14
            + x_7_14 + x_8_14 + x_9_14 + x_10_14 + x_11_14 + x_12_14 + x_13_14
            + x_14_14 + x_15_14 + x_16_14 + x_17_14 + x_18_14 + x_19_14
            + x_20_14 <= 1
 arr_15:    x_0_15 + x_1_15 + x_2_15 + x_3_15 + x_4_15 + x_5_15 + x_6_15
            + x_7_15 + x_8_15 + x_9_15 + x_10_15 + x_11_15 + x_12_15 + x_13_15
            + x_14_15 + x_15_15 + x_16_15 + x_17_15 + x_18_15 + x_19_15
            + x_20_15 <= 1
 arr_16:    x_0_16 + x_1_16 + x_2_16 + x_3_16 + x_4_16 + x_5_16 + x_6_16
            + x_7_16 + x_8_16 + x_9_16 + x_10_16 + x_11_16 + x_12_16 + x_13_16
            + x_14_16 + x_15_16 + x_16_16 + x_17_16 + x_18_16 + x_19_16
            + x_20_16 <= 1
 arr_17:    x_0_17 + x_1_17 + x_2_17 + x_3_17 + x_4_17 + x_5_17 + x_6_17
            + x_7_17 + x_8_17 + x_9_17 + x_10_17 + x_11_17 + x_12_17 + x_13_17
            + x_14_17 + x_15_17 + x_16_17 + x_17_17 + x_18_17 + x_19_17
            + x_20_17 <= 1
 arr_18:    x_0_18 + x_1_18 + x_2_18 + x_3_18 + x_4_18 + x_5_18 + x_6_18
            + x_7_18 + x_8_18 + x_9_18 + x_10_18 + x_11_18 + x_12_18 + x_13_18
            + x_14_18 + x_15_18 + x_16_18 + x_17_18 + x_18_18 + x_19_18
            + x_20_18 <= 1
 arr_19:    x_0_19 + x_1_19 + x_2_19 + x_3_19 + x_4_19 + x_5_19 + x_6_19
            + x_7_19 + x_8_19 + x_9_19 + x_10_19 + x_11_19 + x_12_19 + x_13_19
            + x_14_19 + x_15_19 + x_16_19 + x_17_19 + x_18_19 + x_19_19
            + x_20_19 <= 1
 arr_20:    x_0_20 + x_1_20 + x_2_20 + x_3_20 + x_4_20 + x_5_20 + x_6_20
            + x_7_20 + x_8_20 + x_9_20 + x_10_20 + x_11_20 + x_12_20 + x_13_20
            + x_14_20 + x_15_20 + x_16_20 + x_17_20 + x_18_20 + x_19_20
            + x_20_20 <= 1
 imp_9:     x_0_9 + x_1_9 + x_2_9 + x_3_9 + x_4_9 + x_5_9 + x_6_9 + x_7_9
            + x_8_9 + x_9_0 + x_9_1 + x_9_2 + x_9_3 + x_9_4 + x_9_5 + x_9_6
            + x_9_7 + x_9_8 + x_9_9 + x_9_10 + x_9_11 + x_9_12 + x_9_13
            + x_9_14 + x_9_15 + x_9_16 + x_9_17 + x_9_18 + x_9_19 + x_9_20
            + x_10_9 + x_11_9 + x_12_9 + x_13_9 + x_14_9 + x_15_9 + x_16_9
            + x_17_9 + x_18_9 + x_19_9 + x_20_9  = 0
 imp_10:    x_0_10 + x_1_10 + x_2_10 + x_3_10 + x_4_10 + x_5_10 + x_6_10
            + x_7_10 + x_8_10 + x_9_10 + x_10_0 + x_10_1 + x_10_2 + x_10_3
            + x_10_4 + x_10_5 + x_10_6 + x_10_7 + x_10_8 + x_10_9 + x_10_10
            + x_10_11 + x_10_12 + x_10_13 + x_10_14 + x_10_15 + x_10_16
            + x_10_17 + x_10_18 + x_10_19 + x_10_20 + x_11_10 + x_12_10
            + x_13_10 + x_14_10 + x_15_10 + x_16_10 + x_17_10 + x_18_10
            + x_19_10 + x_20_10  = 0
 imp_17:    x_0_17 + x_1_17 + x_2_17 + x_3_17 + x_4_17 + x_5_17 + x_6_17
            + x_7_17 + x_8_17 + x_9_17 + x_10_17 + x_11_17 + x_12_17 + x_13_17
            + x_14_17 + x_15_17 + x_16_17 + x_17_0 + x_17_1 + x_17_2 + x_17_3
            + x_17_4 + x_17_5 + x_17_6 + x_17_7 + x_17_8 + x_17_9 + x_17_10
            + x_17_11 + x_17_12 + x_17_13 + x_17_14 + x_17_15 + x_17_16
            + x_17_17 + x_17_18 + x_17_19 + x_17_20 + x_18_17 + x_19_17
            + x_20_17  = 0
 imp_18:    x_0_18 + x_1_18 + x_2_18 + x_3_18 + x_4_18 + x_5_18 + x_6_18
            + x_7_18 + x_8_18 + x_9_18 + x_10_18 + x_11_18 + x_12_18 + x_13_18
            + x_14_18 + x_15_18 + x_16_18 + x_17_18 + x_18_0 + x_18_1 + x_18_2
            + x_18_3 + x_18_4 + x_18_5 + x_18_6 + x_18_7 + x_18_8 + x_18_9
            + x_18_10 + x_18_11 + x_18_12 + x_18_13 + x_18_14 + x_18_15
            + x_18_16 + x_18_17 + x_18_18 + x_18_19 + x_18_20 + x_19_18
            + x_20_18  = 0
 imp_0_3:   x_0_3  = 0
 imp_0_19:  x_0_19  = 0
 imp_2_0:   x_2_0  = 0
 imp_2_3:   x_2_3  = 0
 imp_2_11:  x_2_11  = 0
 imp_2_14:  x_2_14  = 0
 imp_2_19:  x_2_19  = 0
 imp_2_20:  x_2_20  = 0
 imp_4_0:   x_4_0  = 0
 imp_4_2:   x_4_2  = 0
 imp_4_3:   x_4_3  = 0
 imp_4_5:   x_4_5  = 0
 imp_4_6:   x_4_6  = 0
 imp_4_7:   x_4_7  = 0
 imp_4_8:   x_4_8  = 0
 imp_4_11:  x_4_11  = 0
 imp_4_13:  x_4_13  = 0
 imp_4_14:  x_4_14  = 0
 imp_4_15:  x_4_15  = 0
 imp_4_16:  x_4_16  = 0
 imp_4_19:  x_4_19  = 0
 imp_4_20:  x_4_20  = 0
 imp_5_0:   x_5_0  = 0
 imp_5_3:   x_5_3  = 0
 imp_5_7:   x_5_7  = 0
 imp_5_11:  x_5_11  = 0
 imp_5_13:  x_5_13  = 0
 imp_5_14:  x_5_14  = 0
 imp_5_16:  x_5_16  = 0
 imp_5_19:  x_5_19  = 0
 imp_5_20:  x_5_20  = 0
 imp_6_0:   x_6_0  = 0
 imp_6_3:   x_6_3  = 0
 imp_6_7:   x_6_7  = 0
 imp_6_11:  x_6_11  = 0
 imp_6_13:  x_6_13  = 0
 imp_6_14:  x_6_14  = 0
 imp_6_16:  x_6_16  = 0
 imp_6_19:  x_6_19  = 0
 imp_6_20:  x_6_20  = 0
 imp_7_0:   x_7_0  = 0
 imp_7_3:   x_7_3  = 0
 imp_7_14:  x_7_14  = 0
 imp_7_19:  x_7_19  = 0
 imp_7_20:  x_7_20  = 0
 imp_8_0:   x_8_0  = 0
 imp_8_3:   x_8_3  = 0
 imp_8_7:   x_8_7  = 0
 imp_8_11:  x_8_11  = 0
 imp_8_14:  x_8_14  = 0
 imp_8_16:  x_8_16  = 0
 imp_8_19:  x_8_19  = 0
 imp_8_20:  x_8_20  = 0
 imp_9_0:   x_9_0  = 0
 imp_9_2:   x_9_2  = 0
 imp_9_3:   x_9_3  = 0
 imp_9_5:   x_9_5  = 0
 imp_9_6:   x_9_6  = 0
 imp_9_7:   x_9_7  = 0
 imp_9_8:   x_9_8  = 0
 imp_9_11:  x_9_11  = 0
 imp_9_13:  x_9_13  = 0
 imp_9_14:  x_9_14  = 0
 imp_9_15:  x_9_15  = 0
 imp_9_16:  x_9_16  = 0
 imp_9_19:  x_9_19  = 0
 imp_9_20:  x_9_20  = 0
 imp_10_0:  x_10_0  = 0
 imp_10_2:  x_10_2  = 0
 imp_10_3:  x_10_3  = 0
 imp_10_4:  x_10_4  = 0
 imp_10_5:  x_10_5  = 0
 imp_10_6:  x_10_6  = 0
 imp_10_7:  x_10_7  = 0
 imp_10_8:  x_10_8  = 0
 imp_10_9:  x_10_9  = 0
 imp_10_11: x_10_11  = 0
 imp_10_12: x_10_12  = 0
 imp_10_13: x_10_13  = 0
 imp_10_14: x_10_14  = 0
 imp_10_15: x_10_15  = 0
 imp_10_16: x_10_16  = 0
 imp_10_19: x_10_19  = 0
 imp_10_20: x_10_20  = 0
 imp_11_0:  x_11_0  = 0
 imp_11_3:  x_11_3  = 0
 imp_11_14: x_11_14  = 0
 imp_11_19: x_11_19  = 0
 imp_11_20: x_11_20  = 0
 imp_12_0:  x_12_0  = 0
 imp_12_2:  x_12_2  = 0
 imp_12_3:  x_12_3  = 0
 imp_12_5:  x_12_5  = 0
 imp_12_6:  x_12_6  = 0
 imp_12_7:  x_12_7  = 0
 imp_12_8:  x_12_8  = 0
 imp_12_11: x_12_11  = 0
 imp_12_13: x_12_13  = 0
 imp_12_14: x_12_14  = 0
 imp_12_15: x_12_15  = 0
 imp_12_16: x_12_16  = 0
 imp_12_19: x_12_19  = 0
 imp_12_20: x_12_20  = 0
 imp_13_0:  x_13_0  = 0
 imp_13_3:  x_13_3  = 0
 imp_13_7:  x_13_7  = 0
 imp_13_11: x_13_11  = 0
 imp_13_14: x_13_14  = 0
 imp_13_16: x_13_16  = 0
 imp_13_19: x_13_19  = 0
 imp_13_20: x_13_20  = 0
 imp_14_3:  x_14_3  = 0
 imp_14_19: x_14_19  = 0
 imp_15_0:  x_15_0  = 0
 imp_15_3:  x_15_3  = 0
 imp_15_5:  x_15_5  = 0
 imp_15_7:  x_15_7  = 0
 imp_15_11: x_15_11  = 0
 imp_15_13: x_15_13  = 0
 imp_15_14: x_15_14  = 0
 imp_15_16: x_15_16  = 0
 imp_15_19: x_15_19  = 0
 imp_15_20: x_15_20  = 0
 imp_16_0:  x_16_0  = 0
 imp_16_3:  x_16_3  = 0
 imp_16_11: x_16_11  = 0
 imp_16_14: x_16_14  = 0
 imp_16_19: x_16_19  = 0
 imp_16_20: x_16_20  = 0
 imp_17_0:  x_17_0  = 0
 imp_17_2:  x_17_2  = 0
 imp_17_3:  x_17_3  = 0
 imp_17_4:  x_17_4  = 0
 imp_17_5:  x_17_5  = 0
 imp_17_6:  x_17_6  = 0
 imp_17_7:  x_17_7  = 0
 imp_17_8:  x_17_8  = 0
 imp_17_9:  x_17_9  = 0
 imp_17_10: x_17_10  = 0
 imp_17_11: x_17_11  = 0
 imp_17_12: x_17_12  = 0
 imp_17_13: x_17_13  = 0
 imp_17_14: x_17_14  = 0
 imp_17_15: x_17_15  = 0
 imp_17_16: x_17_16  = 0
 imp_17_19: x_17_19  = 0
 imp_17_20: x_17_20  = 0
 imp_18_0:  x_18_0  = 0
 imp_18_2:  x_18_2  = 0
 imp_18_3:  x_18_3  = 0
 imp_18_4:  x_18_4  = 0
 imp_18_5:  x_18_5  = 0
 imp_18_6:  x_18_6  = 0
 imp_18_7:  x_18_7  = 0
 imp_18_8:  x_18_8  = 0
 imp_18_9:  x_18_9  = 0
 imp_18_10: x_18_10  = 0
 imp_18_11: x_18_11  = 0
 imp_18_12: x_18_12  = 0
 imp_18_13: x_18_13  = 0
 imp_18_14: x_18_14  = 0
 imp_18_15: x_18_15  = 0
 imp_18_16: x_18_16  = 0
 imp_18_17: x_18_17  = 0
 imp_18_19: x_18_19  = 0
 imp_18_20: x_18_20  = 0
 imp_20_3:  x_20_3  = 0
 imp_20_19: x_20_19  = 0
 c1:        x_11_7  = 1
 c2:        x_7_16  = 1
 c3:        x_16_2  = 1
 c4:        x_2_13  = 1
 c5:        x_13_5  = 1
Bounds
 0 <= x_0_0 <= 1
 0 <= x_0_1 <= 1
 0 <= x_0_2 <= 1
 0 <= x_0_3 <= 1
 0 <= x_0_4 <= 1
 0 <= x_0_5 <= 1
 0 <= x_0_6 <= 1
 0 <= x_0_7 <= 1
 0 <= x_0_8 <= 1
 0 <= x_0_9 <= 1
 0 <= x_0_10 <= 1
 0 <= x_0_11 <= 1
 0 <= x_0_12 <= 1
 0 <= x_0_13 <= 1
 0 <= x_0_14 <= 1
 0 <= x_0_15 <= 1
 0 <= x_0_16 <= 1
 0 <= x_0_17 <= 1
 0 <= x_0_18 <= 1
 0 <= x_0_19 <= 1
 0 <= x_0_20 <= 1
 0 <= x_1_0 <= 1
 0 <= x_1_1 <= 1
 0 <= x_1_2 <= 1
 0 <= x_1_3 <= 1
 0 <= x_1_4 <= 1
 0 <= x_1_5 <= 1
 0 <= x_1_6 <= 1
 0 <= x_1_7 <= 1
 0 <= x_1_8 <= 1
 0 <= x_1_9 <= 1
 0 <= x_1_10 <= 1
 0 <= x_1_11 <= 1
 0 <= x_1_12 <= 1
 0 <= x_1_13 <= 1
 0 <= x_1_14 <= 1
 0 <= x_1_15 <= 1
 0 <= x_1_16 <= 1
 0 <= x_1_17 <= 1
 0 <= x_1_18 <= 1
 0 <= x_1_19 <= 1
 0 <= x_1_20 <= 1
 0 <= x_2_0 <= 1
 0 <= x_2_1 <= 1
 0 <= x_2_2 <= 1
 0 <= x_2_3 <= 1
 0 <= x_2_4 <= 1
 0 <= x_2_5 <= 1
 0 <= x_2_6 <= 1
 0 <= x_2_7 <= 1
 0 <= x_2_8 <= 1
 0 <= x_2_9 <= 1
 0 <= x_2_10 <= 1
 0 <= x_2_11 <= 1
 0 <= x_2_12 <= 1
 0 <= x_2_13 <= 1
 0 <= x_2_14 <= 1
 0 <= x_2_15 <= 1
 0 <= x_2_16 <= 1
 0 <= x_2_17 <= 1
 0 <= x_2_18 <= 1
 0 <= x_2_19 <= 1
 0 <= x_2_20 <= 1
 0 <= x_3_0 <= 1
 0 <= x_3_1 <= 1
 0 <= x_3_2 <= 1
 0 <= x_3_3 <= 1
 0 <= x_3_4 <= 1
 0 <= x_3_5 <= 1
 0 <= x_3_6 <= 1
 0 <= x_3_7 <= 1
 0 <= x_3_8 <= 1
 0 <= x_3_9 <= 1
 0 <= x_3_10 <= 1
 0 <= x_3_11 <= 1
 0 <= x_3_12 <= 1
 0 <= x_3_13 <= 1
 0 <= x_3_14 <= 1
 0 <= x_3_15 <= 1
 0 <= x_3_16 <= 1
 0 <= x_3_17 <= 1
 0 <= x_3_18 <= 1
 0 <= x_3_19 <= 1
 0 <= x_3_20 <= 1
 0 <= x_4_0 <= 1
 0 <= x_4_1 <= 1
 0 <= x_4_2 <= 1
 0 <= x_4_3 <= 1
 0 <= x_4_4 <= 1
 0 <= x_4_5 <= 1
 0 <= x_4_6 <= 1
 0 <= x_4_7 <= 1
 0 <= x_4_8 <= 1
 0 <= x_4_9 <= 1
 0 <= x_4_10 <= 1
 0 <= x_4_11 <= 1
 0 <= x_4_12 <= 1
 0 <= x_4_13 <= 1
 0 <= x_4_14 <= 1
 0 <= x_4_15 <= 1
 0 <= x_4_16 <= 1
 0 <= x_4_17 <= 1
 0 <= x_4_18 <= 1
 0 <= x_4_19 <= 1
 0 <= x_4_20 <= 1
 0 <= x_5_0 <= 1
 0 <= x_5_1 <= 1
 0 <= x_5_2 <= 1
 0 <= x_5_3 <= 1
 0 <= x_5_4 <= 1
 0 <= x_5_5 <= 1
 0 <= x_5_6 <= 1
 0 <= x_5_7 <= 1
 0 <= x_5_8 <= 1
 0 <= x_5_9 <= 1
 0 <= x_5_10 <= 1
 0 <= x_5_11 <= 1
 0 <= x_5_12 <= 1
 0 <= x_5_13 <= 1
 0 <= x_5_14 <= 1
 0 <= x_5_15 <= 1
 0 <= x_5_16 <= 1
 0 <= x_5_17 <= 1
 0 <= x_5_18 <= 1
 0 <= x_5_19 <= 1
 0 <= x_5_20 <= 1
 0 <= x_6_0 <= 1
 0 <= x_6_1 <= 1
 0 <= x_6_2 <= 1
 0 <= x_6_3 <= 1
 0 <= x_6_4 <= 1
 0 <= x_6_5 <= 1
 0 <= x_6_6 <= 1
 0 <= x_6_7 <= 1
 0 <= x_6_8 <= 1
 0 <= x_6_9 <= 1
 0 <= x_6_10 <= 1
 0 <= x_6_11 <= 1
 0 <= x_6_12 <= 1
 0 <= x_6_13 <= 1
 0 <= x_6_14 <= 1
 0 <= x_6_15 <= 1
 0 <= x_6_16 <= 1
 0 <= x_6_17 <= 1
 0 <= x_6_18 <= 1
 0 <= x_6_19 <= 1
 0 <= x_6_20 <= 1
 0 <= x_7_0 <= 1
 0 <= x_7_1 <= 1
 0 <= x_7_2 <= 1
 0 <= x_7_3 <= 1
 0 <= x_7_4 <= 1
 0 <= x_7_5 <= 1
 0 <= x_7_6 <= 1
 0 <= x_7_7 <= 1
 0 <= x_7_8 <= 1
 0 <= x_7_9 <= 1
 0 <= x_7_10 <= 1
 0 <= x_7_11 <= 1
 0 <= x_7_12 <= 1
 0 <= x_7_13 <= 1
 0 <= x_7_14 <= 1
 0 <= x_7_15 <= 1
 0 <= x_7_16 <= 1
 0 <= x_7_17 <= 1
 0 <= x_7_18 <= 1
 0 <= x_7_19 <= 1
 0 <= x_7_20 <= 1
 0 <= x_8_0 <= 1
 0 <= x_8_1 <= 1
 0 <= x_8_2 <= 1
 0 <= x_8_3 <= 1
 0 <= x_8_4 <= 1
 0 <= x_8_5 <= 1
 0 <= x_8_6 <= 1
 0 <= x_8_7 <= 1
 0 <= x_8_8 <= 1
 0 <= x_8_9 <= 1
 0 <= x_8_10 <= 1
 0 <= x_8_11 <= 1
 0 <= x_8_12 <= 1
 0 <= x_8_13 <= 1
 0 <= x_8_14 <= 1
 0 <= x_8_15 <= 1
 0 <= x_8_16 <= 1
 0 <= x_8_17 <= 1
 0 <= x_8_18 <= 1
 0 <= x_8_19 <= 1
 0 <= x_8_20 <= 1
 0 <= x_9_0 <= 1
 0 <= x_9_1 <= 1
 0 <= x_9_2 <= 1
 0 <= x_9_3 <= 1
 0 <= x_9_4 <= 1
 0 <= x_9_5 <= 1
 0 <= x_9_6 <= 1
 0 <= x_9_7 <= 1
 0 <= x_9_8 <= 1
 0 <= x_9_9 <= 1
 0 <= x_9_10 <= 1
 0 <= x_9_11 <= 1
 0 <= x_9_12 <= 1
 0 <= x_9_13 <= 1
 0 <= x_9_14 <= 1
 0 <= x_9_15 <= 1
 0 <= x_9_16 <= 1
 0 <= x_9_17 <= 1
 0 <= x_9_18 <= 1
 0 <= x_9_19 <= 1
 0 <= x_9_20 <= 1
 0 <= x_10_0 <= 1
 0 <= x_10_1 <= 1
 0 <= x_10_2 <= 1
 0 <= x_10_3 <= 1
 0 <= x_10_4 <= 1
 0 <= x_10_5 <= 1
 0 <= x_10_6 <= 1
 0 <= x_10_7 <= 1
 0 <= x_10_8 <= 1
 0 <= x_10_9 <= 1
 0 <= x_10_10 <= 1
 0 <= x_10_11 <= 1
 0 <= x_10_12 <= 1
 0 <= x_10_13 <= 1
 0 <= x_10_14 <= 1
 0 <= x_10_15 <= 1
 0 <= x_10_16 <= 1
 0 <= x_10_17 <= 1
 0 <= x_10_18 <= 1
 0 <= x_10_19 <= 1
 0 <= x_10_20 <= 1
 0 <= x_11_0 <= 1
 0 <= x_11_1 <= 1
 0 <= x_11_2 <= 1
 0 <= x_11_3 <= 1
 0 <= x_11_4 <= 1
 0 <= x_11_5 <= 1
 0 <= x_11_6 <= 1
 0 <= x_11_7 <= 1
 0 <= x_11_8 <= 1
 0 <= x_11_9 <= 1
 0 <= x_11_10 <= 1
 0 <= x_11_11 <= 1
 0 <= x_11_12 <= 1
 0 <= x_11_13 <= 1
 0 <= x_11_14 <= 1
 0 <= x_11_15 <= 1
 0 <= x_11_16 <= 1
 0 <= x_11_17 <= 1
 0 <= x_11_18 <= 1
 0 <= x_11_19 <= 1
 0 <= x_11_20 <= 1
 0 <= x_12_0 <= 1
 0 <= x_12_1 <= 1
 0 <= x_12_2 <= 1
 0 <= x_12_3 <= 1
 0 <= x_12_4 <= 1
 0 <= x_12_5 <= 1
 0 <= x_12_6 <= 1
 0 <= x_12_7 <= 1
 0 <= x_12_8 <= 1
 0 <= x_12_9 <= 1
 0 <= x_12_10 <= 1
 0 <= x_12_11 <= 1
 0 <= x_12_12 <= 1
 0 <= x_12_13 <= 1
 0 <= x_12_14 <= 1
 0 <= x_12_15 <= 1
 0 <= x_12_16 <= 1
 0 <= x_12_17 <= 1
 0 <= x_12_18 <= 1
 0 <= x_12_19 <= 1
 0 <= x_12_20 <= 1
 0 <= x_13_0 <= 1
 0 <= x_13_1 <= 1
 0 <= x_13_2 <= 1
 0 <= x_13_3 <= 1
 0 <= x_13_4 <= 1
 0 <= x_13_5 <= 1
 0 <= x_13_6 <= 1
 0 <= x_13_7 <= 1
 0 <= x_13_8 <= 1
 0 <= x_13_9 <= 1
 0 <= x_13_10 <= 1
 0 <= x_13_11 <= 1
 0 <= x_13_12 <= 1
 0 <= x_13_13 <= 1
 0 <= x_13_14 <= 1
 0 <= x_13_15 <= 1
 0 <= x_13_16 <= 1
 0 <= x_13_17 <= 1
 0 <= x_13_18 <= 1
 0 <= x_13_19 <= 1
 0 <= x_13_20 <= 1
 0 <= x_14_0 <= 1
 0 <= x_14_1 <= 1
 0 <= x_14_2 <= 1
 0 <= x_14_3 <= 1
 0 <= x_14_4 <= 1
 0 <= x_14_5 <= 1
 0 <= x_14_6 <= 1
 0 <= x_14_7 <= 1
 0 <= x_14_8 <= 1
 0 <= x_14_9 <= 1
 0 <= x_14_10 <= 1
 0 <= x_14_11 <= 1
 0 <= x_14_12 <= 1
 0 <= x_14_13 <= 1
 0 <= x_14_14 <= 1
 0 <= x_14_15 <= 1
 0 <= x_14_16 <= 1
 0 <= x_14_17 <= 1
 0 <= x_14_18 <= 1
 0 <= x_14_19 <= 1
 0 <= x_14_20 <= 1
 0 <= x_15_0 <= 1
 0 <= x_15_1 <= 1
 0 <= x_15_2 <= 1
 0 <= x_15_3 <= 1
 0 <= x_15_4 <= 1
 0 <= x_15_5 <= 1
 0 <= x_15_6 <= 1
 0 <= x_15_7 <= 1
 0 <= x_15_8 <= 1
 0 <= x_15_9 <= 1
 0 <= x_15_10 <= 1
 0 <= x_15_11 <= 1
 0 <= x_15_12 <= 1
 0 <= x_15_13 <= 1
 0 <= x_15_14 <= 1
 0 <= x_15_15 <= 1
 0 <= x_15_16 <= 1
 0 <= x_15_17 <= 1
 0 <= x_15_18 <= 1
 0 <= x_15_19 <= 1
 0 <= x_15_20 <= 1
 0 <= x_16_0 <= 1
 0 <= x_16_1 <= 1
 0 <= x_16_2 <= 1
 0 <= x_16_3 <= 1
 0 <= x_16_4 <= 1
 0 <= x_16_5 <= 1
 0 <= x_16_6 <= 1
 0 <= x_16_7 <= 1
 0 <= x_16_8 <= 1
 0 <= x_16_9 <= 1
 0 <= x_16_10 <= 1
 0 <= x_16_11 <= 1
 0 <= x_16_12 <= 1
 0 <= x_16_13 <= 1
 0 <= x_16_14 <= 1
 0 <= x_16_15 <= 1
 0 <= x_16_16 <= 1
 0 <= x_16_17 <= 1
 0 <= x_16_18 <= 1
 0 <= x_16_19 <= 1
 0 <= x_16_20 <= 1
 0 <= x_17_0 <= 1
 0 <= x_17_1 <= 1
 0 <= x_17_2 <= 1
 0 <= x_17_3 <= 1
 0 <= x_17_4 <= 1
 0 <= x_17_5 <= 1
 0 <= x_17_6 <= 1
 0 <= x_17_7 <= 1
 0 <= x_17_8 <= 1
 0 <= x_17_9 <= 1
 0 <= x_17_10 <= 1
 0 <= x_17_11 <= 1
 0 <= x_17_12 <= 1
 0 <= x_17_13 <= 1
 0 <= x_17_14 <= 1
 0 <= x_17_15 <= 1
 0 <= x_17_16 <= 1
 0 <= x_17_17 <= 1
 0 <= x_17_18 <= 1
 0 <= x_17_19 <= 1
 0 <= x_17_20 <= 1
 0 <= x_18_0 <= 1
 0 <= x_18_1 <= 1
 0 <= x_18_2 <= 1
 0 <= x_18_3 <= 1
 0 <= x_18_4 <= 1
 0 <= x_18_5 <= 1
 0 <= x_18_6 <= 1
 0 <= x_18_7 <= 1
 0 <= x_18_8 <= 1
 0 <= x_18_9 <= 1
 0 <= x_18_10 <= 1
 0 <= x_18_11 <= 1
 0 <= x_18_12 <= 1
 0 <= x_18_13 <= 1
 0 <= x_18_14 <= 1
 0 <= x_18_15 <= 1
 0 <= x_18_16 <= 1
 0 <= x_18_17 <= 1
 0 <= x_18_18 <= 1
 0 <= x_18_19 <= 1
 0 <= x_18_20 <= 1
 0 <= x_19_0 <= 1
 0 <= x_19_1 <= 1
 0 <= x_19_2 <= 1
 0 <= x_19_3 <= 1
 0 <= x_19_4 <= 1
 0 <= x_19_5 <= 1
 0 <= x_19_6 <= 1
 0 <= x_19_7 <= 1
 0 <= x_19_8 <= 1
 0 <= x_19_9 <= 1
 0 <= x_19_10 <= 1
 0 <= x_19_11 <= 1
 0 <= x_19_12 <= 1
 0 <= x_19_13 <= 1
 0 <= x_19_14 <= 1
 0 <= x_19_15 <= 1
 0 <= x_19_16 <= 1
 0 <= x_19_17 <= 1
 0 <= x_19_18 <= 1
 0 <= x_19_19 <= 1
 0 <= x_19_20 <= 1
 0 <= x_20_0 <= 1
 0 <= x_20_1 <= 1
 0 <= x_20_2 <= 1
 0 <= x_20_3 <= 1
 0 <= x_20_4 <= 1
 0 <= x_20_5 <= 1
 0 <= x_20_6 <= 1
 0 <= x_20_7 <= 1
 0 <= x_20_8 <= 1
 0 <= x_20_9 <= 1
 0 <= x_20_10 <= 1
 0 <= x_20_11 <= 1
 0 <= x_20_12 <= 1
 0 <= x_20_13 <= 1
 0 <= x_20_14 <= 1
 0 <= x_20_15 <= 1
 0 <= x_20_16 <= 1
 0 <= x_20_17 <= 1
 0 <= x_20_18 <= 1
 0 <= x_20_19 <= 1
 0 <= x_20_20 <= 1
End
